tps_eleves/tps_eleves/linear_prog/question10/question10_local.lp-pulp.mps
*SENSE:Minimize
NAME          MODEL
ROWS
 N  OBJ
 E  C0000000
 E  C0000001
 E  C0000002
 E  C0000003
 E  C0000004
 E  C0000005
 E  C0000006
 E  C0000007
COLUMNS
    X0000000  C0000000   1.000000000000e+00
    X0000000  C0000001   1.000000000000e+00
    X0000001  C0000002   1.000000000000e+00
    X0000001  C0000003   1.000000000000e+00
    X0000002  C0000004   1.000000000000e+00
    X0000002  C0000005   1.000000000000e+00
    X0000003  C0000006   1.000000000000e+00
    X0000003  C0000007   1.000000000000e+00
    X0000004  C0000000   1.000000000000e+00
    X0000004  OBJ        3.200000000000e+02
    X0000005  C0000002   1.000000000000e+00
    X0000005  OBJ        3.200000000000e+02
    X0000006  C0000004   1.000000000000e+00
    X0000006  OBJ        3.200000000000e+02
    X0000007  C0000006   1.000000000000e+00
    X0000007  OBJ        3.200000000000e+02
    X0000008  C0000001   1.000000000000e+00
    X0000008  OBJ       -1.600000000000e+02
    X0000009  C0000003   1.000000000000e+00
    X0000009  OBJ       -1.600000000000e+02
    X0000010  C0000005   1.000000000000e+00
    X0000010  OBJ       -1.600000000000e+02
    X0000011  C0000007   1.000000000000e+00
    X0000011  OBJ       -1.600000000000e+02
RHS
    RHS       C0000000   5.000000000000e+01
    RHS       C0000001   3.500000000000e+02
    RHS       C0000002   2.500000000000e+01
    RHS       C0000003   0.000000000000e+00
    RHS       C0000004   5.000000000000e+01
    RHS       C0000005   0.000000000000e+00
    RHS       C0000006   5.000000000000e+01
    RHS       C0000007   5.000000000000e+01
BOUNDS
 UP BND       X0000000   5.000000000000e+01
 UP BND       X0000001   2.500000000000e+01
 UP BND       X0000002   5.000000000000e+01
 UP BND       X0000003   5.000000000000e+01
 UP BND       X0000004   5.000000000000e+01
 UP BND       X0000005   2.500000000000e+01
 UP BND       X0000006   5.000000000000e+01
 UP BND       X0000007   5.000000000000e+01
 UP BND       X0000008   3.500000000000e+02
 FX BND       X0000009   0.000000000000e+00
 FX BND       X0000010   0.000000000000e+00
 UP BND       X0000011   5.000000000000e+01
ENDATA
