tps_eleves/tps_eleves/linear_prog/question10/question10_local.lp-pulp.sol
Optimal - objective value -24000.00000000
      0 C0000000              50                     320
      1 C0000001             350                    -160
      2 C0000002              25                     320
      3 C0000003               0                    -320
      4 C0000004              50                     320
      5 C0000005               0                    -320
      6 C0000006              50                     320
      7 C0000007              50                    -320
      0 X0000000              50                    -160
      1 X0000001               0                       0
      2 X0000002               0                       0
      3 X0000003              50                       0
      4 X0000004               0                       0
      5 X0000005              25                       0
      6 X0000006              50                       0
      7 X0000007               0                       0
      8 X0000008             300                       0
      9 X0000009               0                     160
     10 X0000010               0                     160
     11 X0000011               0                     160
